p edge 20 36
e 1 4
e 1 5
e 1 8
e 1 17
e 2 9
e 2 14
e 2 16
e 3 6
e 3 8
e 3 13
e 3 14
e 3 15
e 3 18
e 3 20
e 4 6
e 4 13
e 4 14
e 4 15
e 4 18
e 4 20
e 5 6
e 5 7
e 5 12
e 5 13
e 5 18
e 5 19
e 6 9
e 6 10
e 6 11
e 8 9
e 8 10
e 8 11
e 8 12
e 9 13
e 9 15
e 11 14
